
Gurobi 10.0.1 (win64) logging started Fri Oct  6 16:53:14 2023

Set parameter LogFile to value "./results//log/URT_04_deadline_heurTrue.log"
Gurobi Optimizer version 10.0.1 build v10.0.1rc0 (win64)

CPU model: AMD Ryzen 7 3700X 8-Core Processor, instruction set [SSE2|AVX|AVX2]
Thread count: 8 physical cores, 16 logical processors, using up to 16 threads

Optimize a model with 52 rows, 52 columns and 143 nonzeros
Model fingerprint: 0x870b6d9c
Model has 1 quadratic constraint
Variable types: 0 continuous, 52 integer (45 binary)
Coefficient statistics:
  Matrix range     [1e+00, 1e+07]
  QMatrix range    [1e+00, 1e+00]
  QLMatrix range   [1e+00, 5e+00]
  Objective range  [1e+00, 1e+00]
  Bounds range     [1e+00, 1e+00]
  RHS range        [1e+00, 3e+07]

User MIP start did not produce a new incumbent solution
User MIP start violates constraint initial_start_time_job0_stage0_machine0_constraint by 1.000000000

Presolve removed 38 rows and 41 columns
Presolve time: 0.00s
Presolved: 14 rows, 11 columns, 38 nonzeros
Variable types: 0 continuous, 11 integer (4 binary)
Found heuristic solution: objective 72.0000000
Found heuristic solution: objective 51.0000000

Root relaxation: objective 2.200000e+01, 4 iterations, 0.00 seconds (0.00 work units)

    Nodes    |    Current Node    |     Objective Bounds      |     Work
 Expl Unexpl |  Obj  Depth IntInf | Incumbent    BestBd   Gap | It/Node Time

     0     0 infeasible    0        51.00000   51.00000  0.00%     -    0s

Explored 1 nodes (4 simplex iterations) in 0.00 seconds (0.00 work units)
Thread count was 16 (of 16 available processors)

Solution count 2: 51 72 

Optimal solution found (tolerance 1.00e-04)
Best objective 5.100000000000e+01, best bound 5.100000000000e+01, gap 0.0000%
Warning: constraint name "precedence between 0,0 to 1,0 if x_[0,0,1,0,1]=0, i.e. 1,0 before 0,0" has a space
Warning: constraint name "precedence between 0,0 to 1,0 if x_[0,0,1,0,1]=0, i.e. 1,0 before 0,0" has a space
Warning: default constraint names used to write mps file
